NAME 
ROWS
 N  OBJ
 L  R0      
 L  R1      
 E  R2      
COLUMNS
    MARKER    'MARKER'                 'INTORG'
    I0(3)     OBJ       -155
    I0(3)     R0        -74
    I0(3)     R1        -161
    I0(3)     R2        93
    I1(3)     OBJ       -311
    I1(3)     R0        -43
    I1(3)     R1        -459
    I1(3)     R2        216
    I2(3)     OBJ       -350
    I2(3)     R0        -836
    I2(3)     R1        -272
    I2(3)     R2        928
    I3(3)     OBJ       -293
    I3(3)     R0        -389
    I3(3)     R1        -307
    I3(3)     R2        744
    I4(3)     OBJ       -241
    I4(3)     R0        -88
    I4(3)     R1        -168
    I4(3)     R2        728
    I5(3)     OBJ       -390
    I5(3)     R0        -36
    I5(3)     R1        -55
    I5(3)     R2        249
    I6(3)     OBJ       -517
    I6(3)     R0        -787
    I6(3)     R1        -113
    I6(3)     R2        635
    I7(3)     OBJ       -276
    I7(3)     R0        -305
    I7(3)     R1        -48
    I7(3)     R2        630
    I8(3)     OBJ       -739
    I8(3)     R0        -875
    I8(3)     R1        -505
    I8(3)     R2        87
    I9(3)     OBJ       -323
    I9(3)     R0        -341
    I9(3)     R1        -618
    I9(3)     R2        801
    I10(3)    OBJ       -293
    I10(3)    R0        -164
    I10(3)    R1        -155
    I10(3)    R2        271
    I11(3)    OBJ       -631
    I11(3)    R0        -29
    I11(3)    R1        -578
    I11(3)    R2        248
    I12(3)    OBJ       -147
    I12(3)    R0        -651
    I12(3)    R1        -661
    I12(3)    R2        259
    I13(3)    OBJ       -710
    I13(3)    R0        -513
    I13(3)    R1        -990
    I13(3)    R2        542
    I14(3)    OBJ       -784
    I14(3)    R0        -322
    I14(3)    R1        -967
    I14(3)    R2        554
    I15(3)    OBJ       -806
    I15(3)    R0        -892
    I15(3)    R1        -748
    I15(3)    R2        427
    I16(3)    OBJ       -881
    I16(3)    R0        -903
    I16(3)    R1        -25
    I16(3)    R2        597
    I17(3)    OBJ       -450
    I17(3)    R0        -838
    I17(3)    R1        -753
    I17(3)    R2        667
    I18(3)    OBJ       -506
    I18(3)    R0        -167
    I18(3)    R1        -52
    I18(3)    R2        474
    I19(3)    OBJ       -107
    I19(3)    R0        -641
    I19(3)    R1        -899
    I19(3)    R2        101
    I20(1)    R2        1
    MARKER    'MARKER'                 'INTEND'
RHS
    RHS1      R0        -5446
    RHS1      R1        -5707
    RHS1      R2        4625
BOUNDS
 UP BND1      I0(3)     1
 UP BND1      I1(3)     1
 UP BND1      I2(3)     1
 UP BND1      I3(3)     1
 UP BND1      I4(3)     1
 UP BND1      I5(3)     1
 UP BND1      I6(3)     1
 UP BND1      I7(3)     1
 UP BND1      I8(3)     1
 UP BND1      I9(3)     1
 UP BND1      I10(3)    1
 UP BND1      I11(3)    1
 UP BND1      I12(3)    1
 UP BND1      I13(3)    1
 UP BND1      I14(3)    1
 UP BND1      I15(3)    1
 UP BND1      I16(3)    1
 UP BND1      I17(3)    1
 UP BND1      I18(3)    1
 UP BND1      I19(3)    1
 LI BND1      I20(1)    0
ENDATA
